NAME : B-n50-k7.437149.tour
COMMENT : Length = 437149
COMMENT : Found by LKH [Keld Helsgaun] Sun Dec 17 19:08:48 2017
TYPE : TOUR
DIMENSION : 56
TOUR_SECTION
1
7
16
41
29
33
51
48
34
23
13
39
10
24
30
47
55
42
32
4
11
43
17
28
54
36
5
2
14
27
40
52
8
31
26
19
15
44
25
53
35
50
3
49
18
45
20
56
22
46
37
6
9
21
12
38
-1
EOF
